1439515312
1439515700
1439515720
1439515930
1439516413
1439516413
1439516413
1439516413
1439516413
1439516413
1439516413
1439516413
1439516413
1439516413
1439516413
1439516413
1439516413
1439516413
1439516413
1439516413
1439516413
1439516413
1439516413
1439516413
1439516413
1439516413
1439516413
1439516413
1439522418
1439522418
1439522942
1439523085
1439523177
1439523177
1439523309
1439523324
1439523421
1439523442
1439523479
1439523728
1439523740
1439533180
1439533382
1439535430
1439535628
1439535733
1439536367
1439536367
1439536367
1439536367
1439536367
1439536367
1439536367
1439536367
1439780724
1439781366
1439796761
